100 1500
1 17
2 32
1 4
2 36
1 45
2 2
2 48
1 11
2 34
1 18
1 10
1 39
1 13
1 36
2 13
1 15
2 11
2 50
1 16
1 27
2 48
2 3
2 38
2 27
1 45
2 44
2 41
2 46
1 19
1 29
2 21
2 39
2 21
1 20
2 50
2 6
2 35
2 47
1 42
2 30
2 26
2 31
2 2
1 5
2 23
1 43
2 14
1 25
1 8
1 1
2 1
1 37
1 16
1 5
2 35
2 26
1 20
2 23
2 29
2 31
2 15
1 4
1 49
1 37
1 12
1 44
2 7
2 24
2 42
2 12
2 8
2 40
1 6
1 43
1 33
2 33
2 9
2 25
1 41
1 34
1 14
2 28
2 17
1 49
1 22
1 22
2 38
1 3
1 9
2 32
2 28
1 18
1 19
1 7
1 10
2 46
2 47
2 40
1 24
1 30
